10111111111111111110011110101111101110110010011000111100010010010101111100111010111110100111001111011001001011111111111111111001110101110111111011111111111111111111111111110001100011110011110110010010111111111111111110011110011101111110111111111111111111111111110111011001111101100000000000000100000000000011110010100000101000000010000000000001100000000000110101111100